Gurobi Optimizer version 9.1.2 build v9.1.2rc0 (linux64)
Thread count: 36 physical cores, 72 logical processors, using up to 32 threads
Optimize a model with 12 rows, 57 columns and 590 nonzeros
Model fingerprint: 0xf32eec78
Model has 47 quadratic constraints
Coefficient statistics:
  Matrix range     [2e-05, 3e+00]
  QMatrix range    [1e+00, 1e+00]
  QLMatrix range   [1e+00, 1e+00]
  Objective range  [8e-03, 7e-01]
  Bounds range     [1e+00, 1e+00]
  RHS range        [1e+00, 1e+00]
Presolve removed 9 rows and 0 columns

Continuous model is non-convex -- solving as a MIP.

Presolve removed 9 rows and 0 columns
Presolve time: 0.00s
Presolved: 189 rows, 57 columns, 443 nonzeros
Presolved model has 47 bilinear constraint(s)
Variable types: 57 continuous, 0 integer (0 binary)

Root relaxation: objective -1.743721e+00, 44 iterations, 0.00 seconds

    Nodes    |    Current Node    |     Objective Bounds      |     Work
 Expl Unexpl |  Obj  Depth IntInf | Incumbent    BestBd   Gap | It/Node Time

     0     0   -1.74372    0   38          -   -1.74372      -     -    0s
H    0     0                       0.6147548   -1.74372   384%     -    0s
     0     0   -1.64739    0    1    0.61475   -1.64739   368%     -    0s
H    0     0                      -1.6450460   -1.64739  0.14%     -    0s
     0     0     cutoff    0        -1.64505   -1.64505  0.00%     -    0s

Cutting planes:
  RLT: 25
  BQP: 3

Explored 1 nodes (76 simplex iterations) in 0.01 seconds
Thread count was 32 (of 72 available processors)

Solution count 2: -1.64505 0.614755 
No other solutions better than -1.64505

Optimal solution found (tolerance 1.00e-04)
Best objective -1.645045978473e+00, best bound -1.645045978473e+00, gap 0.0000%

User-callback calls 78, time in user-callback 0.00 sec
Gurobi Optimizer version 9.1.2 build v9.1.2rc0 (linux64)
Thread count: 36 physical cores, 72 logical processors, using up to 32 threads
Optimize a model with 24 rows, 120 columns and 2480 nonzeros
Model fingerprint: 0x1af0f758
Model has 100 quadratic constraints
Coefficient statistics:
  Matrix range     [8e-06, 4e+00]
  QMatrix range    [1e+00, 1e+00]
  QLMatrix range   [1e+00, 1e+00]
  Objective range  [3e-03, 9e-01]
  Bounds range     [1e+00, 1e+00]
  RHS range        [1e+00, 1e+00]
Presolve removed 17 rows and 0 columns

Continuous model is non-convex -- solving as a MIP.

Presolve removed 17 rows and 0 columns
Presolve time: 0.00s
Presolved: 407 rows, 120 columns, 1232 nonzeros
Presolved model has 100 bilinear constraint(s)
Variable types: 120 continuous, 0 integer (0 binary)

Root relaxation: objective -5.111787e+00, 132 iterations, 0.00 seconds

    Nodes    |    Current Node    |     Objective Bounds      |     Work
 Expl Unexpl |  Obj  Depth IntInf | Incumbent    BestBd   Gap | It/Node Time

     0     0   -5.11179    0  100          -   -5.11179      -     -    0s
H    0     0                       1.4215602   -5.11179   460%     -    0s
     0     0   -3.30069    0  100    1.42156   -3.30069   332%     -    0s
H    0     0                       0.4821647   -3.30069   785%     -    0s
     0     0   -3.29961    0  100    0.48216   -3.29961   784%     -    0s
     0     0   -3.08955    0   90    0.48216   -3.08955   741%     -    0s
H    0     0                      -0.9050250   -3.08955   241%     -    0s
     0     0   -3.08590    0   82   -0.90503   -3.08590   241%     -    0s
     0     0   -3.01138    0  100   -0.90503   -3.01138   233%     -    0s
     0     0   -3.00064    0  100   -0.90503   -3.00064   232%     -    0s
     0     0   -2.99016    0  100   -0.90503   -2.99016   230%     -    0s
     0     0   -2.98626    0  100   -0.90503   -2.98626   230%     -    0s
     0     0   -2.98001    0   66   -0.90503   -2.98001   229%     -    0s
H    0     0                      -1.2497031   -2.98001   138%     -    0s
     0     0   -2.97845    0  100   -1.24970   -2.97845   138%     -    0s
     0     0   -2.97679    0  100   -1.24970   -2.97679   138%     -    0s
     0     0   -2.97671    0  100   -1.24970   -2.97671   138%     -    0s
     0     0   -2.97580    0  100   -1.24970   -2.97580   138%     -    0s
H    0     0                      -2.4315092   -2.97580  22.4%     -    0s
H    0     0                      -2.4884406   -2.97580  19.6%     -    0s
H    0     0                      -2.5104414   -2.97580  18.5%     -    0s
     0     2   -2.97580    0  100   -2.51044   -2.97580  18.5%     -    0s
*  495   229              18      -2.5141068   -2.62049  4.23%  20.5    0s
*  496   229              15      -2.5267645   -2.62049  3.71%  20.5    0s
*  733   267              21      -2.5284879   -2.59647  2.69%  15.9    0s
*  734   267              21      -2.5284883   -2.59647  2.69%  15.9    0s
*  741   267              20      -2.5328581   -2.59647  2.51%  15.8    0s
*  770   267              20      -2.5328966   -2.59647  2.51%  15.5    0s
*  857   235              31      -2.5359169   -2.59232  2.22%  14.6    0s
*  858   235              31      -2.5359196   -2.59232  2.22%  14.6    0s
* 1051   305              27      -2.5376691   -2.59232  2.15%  12.7    0s
* 1070   305              30      -2.5389502   -2.59232  2.10%  12.6    0s
* 1071   305              30      -2.5389505   -2.59232  2.10%  12.6    0s
* 1128   305              22      -2.5394039   -2.59232  2.08%  12.2    0s
* 1259   243              24      -2.5396342   -2.59232  2.07%  11.4    0s
* 1267   243              27      -2.5403899   -2.59232  2.04%  11.3    0s
* 1268   243              27      -2.5404058   -2.59232  2.04%  11.3    0s
* 1305   243              25      -2.5414376   -2.59232  2.00%  11.1    0s
* 1497   243              25      -2.5414448   -2.59232  2.00%  10.1    0s
* 1499   243              26      -2.5414539   -2.59232  2.00%  10.1    0s
* 1538    21              24      -2.5415197   -2.55432  0.50%  10.0    0s
* 1539    21              24      -2.5415197   -2.55432  0.50%  10.0    0s
* 1579    21              25      -2.5416195   -2.54272  0.04%   9.8    0s
* 1580    21              25      -2.5416234   -2.54272  0.04%   9.7    0s
* 1583    21              24      -2.5416253   -2.54272  0.04%   9.7    0s

Cutting planes:
  RLT: 46
  BQP: 10
  PSD: 7

Explored 1736 nodes (15843 simplex iterations) in 0.50 seconds
Thread count was 32 (of 72 available processors)

Solution count 10: -2.54163 -2.54162 -2.54162 ... -2.53963
No other solutions better than -2.54163

Optimal solution found (tolerance 1.00e-04)
Best objective -2.541625279452e+00, best bound -2.541625279452e+00, gap 0.0000%

User-callback calls 3766, time in user-callback 0.00 sec



objective value: -2.54162527945166
objective bound: -2.54162527945166
x_opt: [0.0, 1.0, 1.0, 0.0, 1.0, 0.041553730561539666, 0.0, 0.0, 1.0, 1.0, 0.0, 0.0, 0.0, 1.0, 0.0, 0.7941374103912899, 1.0, 0.18273479009330593, 0.0, 0.43878097702443025]
GUROBI solution time: 0.4966318607330322




